Route #1: 26 46 20 31 42 7 4
Route #2: 21 33 34 3 37
Route #3: 14 17 2 51 15 11 36
Route #4: 32 38 16 40 53 5 10 12
Route #5: 47 39 49 9 35 43
Route #6: 8 6 45 1
Route #7: 18 48 50 44 24 52 23
Route #8: 25 41 29
Route #9: 30 22 19 27 13 54 28
Cost 1073
Time 0.088175
